4244006311906409380506,1,1,2,05,6,1,2,015,15,1,2,05,4,1,2,02,9,1,2,014,1,1,2,04,2,1,2,07,6,1,2,08,14,1,2,03,1,1,2,013,13,1,2,06,12,1,2,05,11,1,2,014,12,1,2,04,9,1,2,015,2,1,2,015,6,1,2,08,5,1,2,05,7,1,2,02,12,1,2,08,8,1,2,011,14,1,2,07,5,1,2,010,1,1,2,07,8,1,2,05,8,1,2,05,4,1,2,012,8,1,2,07,9,1,2,09,4,1,2,02,3,1,2,02,13,1,2,011,2,1,2,012,2,1,2,03,8,1,2,014,1,1,2,014,8,1,2,03,15,1,2,05,13,1,2,02,2,1,2,07,13,1,2,03,5,1,2,02,4,1,2,04,1,1,2,010,3,1,2,010,3,1,2,04,8,1,2,010,5,1,2,04,12,1,2,011,13,1,2,0